27 
300 
4.6 7.1 0 0
5 5.6 0 -28
5.7 11.4 -20 -124
4.4 12.3 20 -17
2.8 14.3 30 -12
3.2 10.3 -15 -122
3.5 9.8 15 -11
4.4 8.4 -10 -66
7.8 11 -20 -78
8.8 9.8 20 -15
7.7 8.2 -20 -82
6.3 7.9 15 -15
5.4 8.2 -10 -119
5.8 6.8 -10 -131
6.7 5.8 -25 -93
13.8 13.1 -40 -107
14.1 14.2 -40 -137
11.2 13.6 30 -12
9.7 16.4 -30 -87
9.5 18.8 -50 -115
4.7 16.8 -30 -138
